<number of tasks>
58

<cycle time>
56

<task times>
1 10
2 53
3 41
4 36
5 35
6 17
7 34
8 23
9 14
10 52
11 33
12 34
13 12
14 52
15 12
16 33
17 44
18 7
19 15
20 13
21 29
22 37
23 43
24 23
25 24
26 9
27 16
28 12
29 26
30 22
31 51
32 47
33 34
34 23
35 12
36 52
37 12
38 33
39 44
40 7
41 15
42 13
43 29
44 37
45 43
46 23
47 24
48 9
49 16
50 12
51 26
52 12
53 52
54 12
55 33
56 44
57 7
58 15

<precedence relations>
1,9
2,25
3,21
3,22
4,10
5,36
6,23
6,24
7,43
8,44
9,11
11,13
11,14
11,15
12,17
13,17
14,17
15,17
16,18
17,20
18,19
19,23
20,21
20,25
21,26
21,44
22,27
23,31
24,31
25,38
26,29
27,30
28,32
28,33
29,31
30,34
31,36
32,45
33,35
34,36
35,43
36,37
36,38
37,39
37,40
37,41
38,52
39,43
40,43
41,42
42,43
43,45
44,45
45,46
45,48
45,49
46,47
46,50
47,51
48,55
49,58
50,58
51,52
52,53
53,54
54,55
54,56
55,57
56,57
57,58

<setup times forward>
1,2:3
1,3:9
1,4:7
1,5:1
1,6:7
1,7:17
1,8:7
1,9:1
1,10:2
1,16:7
1,18:1
1,19:9
1,22:12
1,23:5
1,24:4
1,27:4
1,30:17
1,32:15
1,33:4
1,34:6
1,35:12
2,1:3
2,3:6
2,4:4
2,5:2
2,6:4
2,7:14
2,8:10
2,9:2
2,10:5
2,11:1
2,12:3
2,13:12
2,14:4
2,15:9
2,16:10
2,17:12
2,18:2
2,19:6
2,20:2
2,21:3
2,22:9
2,23:2
2,24:1
2,25:3
2,26:12
2,27:7
2,28:3
2,29:9
2,30:14
2,31:3
2,32:12
2,33:7
2,34:9
2,35:9
2,36:2
2,37:7
2,39:7
2,40:7
2,41:7
2,42:9
2,43:9
2,44:7
2,45:6
2,46:5
2,47:5
2,48:5
2,49:3
2,50:10
2,51:10
3,1:9
3,2:6
3,4:2
3,5:8
3,6:2
3,7:8
3,8:16
3,9:8
3,10:11
3,11:5
3,12:9
3,13:6
3,14:2
3,15:3
3,16:16
3,17:6
3,18:8
3,20:4
3,21:9
3,22:3
3,23:4
3,24:5
3,25:9
3,28:9
3,32:6
3,33:13
3,35:3
4,1:7
4,2:4
4,3:2
4,5:6
4,7:10
4,8:14
4,9:6
4,10:9
4,11:3
4,12:7
4,13:8
4,15:5
4,16:14
4,17:8
4,18:6
4,19:2
4,20:2
4,21:7
4,22:5
4,23:2
4,24:3
4,25:7
4,26:8
4,27:11
4,28:7
4,29:13
4,30:10
4,31:1
4,32:8
4,33:11
4,34:13
4,35:5
4,36:6
4,37:11
4,38:1
4,39:11
4,40:11
4,41:11
4,42:5
4,43:5
4,44:11
4,45:10
4,46:1
4,47:1
4,48:1
4,49:1
4,50:6
4,51:6
4,52:6
4,53:11
4,54:6
4,55:9
4,56:6
4,57:9
4,58:9
5,1:1
5,2:2
5,3:8
5,4:6
5,6:6
5,7:16
5,8:8
5,10:3
5,11:3
5,12:1
5,13:14
5,14:6
5,15:11
5,16:8
5,17:14
5,19:8
5,20:4
5,21:1
5,22:11
5,23:4
5,24:3
5,25:1
5,26:14
5,27:5
5,28:1
5,29:7
5,30:16
5,31:5
5,32:14
5,33:5
5,34:7
5,35:11
5,44:5
6,1:7
6,2:4
6,3:2
6,5:6
6,7:10
6,8:14
6,9:6
6,10:9
6,11:3
6,12:7
6,13:8
6,15:5
6,16:14
6,17:8
6,18:6
6,19:2
6,20:2
6,21:7
6,22:5
6,23:2
6,24:3
6,25:7
6,26:8
6,27:11
6,28:7
6,29:13
6,30:10
6,32:8
6,33:11
6,34:13
6,35:5
6,44:11
7,1:17
7,2:14
7,3:8
7,4:10
7,5:16
7,6:10
7,8:24
7,9:16
7,10:19
7,11:13
7,12:17
7,13:2
7,14:10
7,15:5
7,16:24
7,17:2
7,18:16
7,19:8
7,20:12
7,21:17
7,22:5
7,23:12
7,24:13
7,25:17
7,26:2
7,27:21
7,28:17
7,29:23
7,31:11
7,32:2
7,33:21
7,34:23
7,35:5
7,36:16
7,37:21
7,38:11
7,39:21
7,40:21
7,41:21
7,42:5
7,43:5
7,44:21
8,1:7
8,2:10
8,3:16
8,4:14
8,5:8
8,6:14
8,7:24
8,9:8
8,10:5
8,11:11
8,12:7
8,13:22
8,14:14
8,15:19
8,17:22
8,18:8
8,19:16
8,20:12
8,21:7
8,22:19
8,23:12
8,24:11
8,25:7
8,26:22
8,27:3
8,28:7
8,29:1
8,30:24
8,31:13
8,32:22
8,33:3
8,34:1
8,35:19
8,36:8
8,37:3
8,38:13
8,39:3
8,40:3
8,41:3
8,42:19
8,43:19
8,44:3
9,2:2
9,3:8
9,4:6
9,6:6
9,7:16
9,8:8
9,10:3
9,11:3
9,12:1
9,16:8
9,19:8
9,22:11
9,23:4
9,24:3
9,27:5
9,28:1
9,30:16
9,32:14
9,33:5
9,34:7
9,35:11
10,1:2
10,2:5
10,3:11
10,5:3
10,6:9
10,7:19
10,8:5
10,9:3
10,11:6
10,12:2
10,13:17
10,14:9
10,15:14
10,16:5
10,17:17
10,18:3
10,19:11
10,20:7
10,21:2
10,22:14
10,23:7
10,24:6
10,25:2
10,26:17
10,27:2
10,28:2
10,29:4
10,30:19
10,31:8
10,32:17
10,33:2
10,34:4
10,35:14
10,36:3
10,37:2
10,38:8
10,39:2
10,40:2
10,41:2
10,42:14
10,43:14
10,44:2
10,45:1
10,46:10
10,47:10
10,48:10
10,49:8
10,50:15
10,51:15
10,52:15
10,53:20
10,54:3
10,55:18
10,56:3
10,57:18
10,58:18
11,2:1
11,3:5
11,4:3
11,5:3
11,6:3
11,7:13
11,8:11
11,10:6
11,12:4
11,13:11
11,14:3
11,15:8
11,16:11
11,18:3
11,19:5
11,22:8
11,23:1
11,27:8
11,28:4
11,30:13
11,32:11
11,33:8
11,34:10
11,35:8
12,2:3
12,3:9
12,4:7
12,5:1
12,6:7
12,7:17
12,8:7
12,9:1
12,10:2
12,11:4
12,13:15
12,14:7
12,15:12
12,16:7
12,17:15
12,18:1
12,19:9
12,22:12
12,23:5
12,24:4
12,27:4
12,30:17
12,32:15
12,33:4
12,34:6
12,35:12
13,2:12
13,3:6
13,4:8
13,5:14
13,6:8
13,7:2
13,8:22
13,10:17
13,12:15
13,14:8
13,15:3
13,16:22
13,18:14
13,19:6
13,22:3
13,23:10
13,24:11
13,27:19
13,28:15
13,30:2
13,33:19
13,34:21
13,35:3
14,2:4
14,3:2
14,5:6
14,7:10
14,8:14
14,10:9
14,12:7
14,13:8
14,15:5
14,16:14
14,17:8
14,18:6
14,19:2
14,22:5
14,23:2
14,24:3
14,27:11
14,28:7
14,30:10
14,32:8
14,33:11
14,34:13
14,35:5
15,2:9
15,3:3
15,4:5
15,5:11
15,6:5
15,7:5
15,8:19
15,10:14
15,12:12
15,13:3
15,14:5
15,16:19
15,17:3
15,18:11
15,19:3
15,23:7
15,24:8
15,27:16
15,28:12
15,30:5
15,32:3
15,33:16
15,34:18
16,1:7
16,2:10
16,3:16
16,4:14
16,5:8
16,6:14
16,7:24
16,9:8
16,10:5
16,11:11
16,12:7
16,13:22
16,14:14
16,15:19
16,17:22
16,18:8
16,20:12
16,21:7
16,22:19
16,24:11
16,25:7
16,26:22
16,27:3
16,28:7
16,29:1
16,30:24
16,32:22
16,33:3
16,34:1
16,35:19
16,44:3
17,2:12
17,3:6
17,4:8
17,5:14
17,6:8
17,7:2
17,8:22
17,10:17
17,16:22
17,18:14
17,19:6
17,20:10
17,22:3
17,23:10
17,24:11
17,27:19
17,28:15
17,30:2
17,33:19
17,34:21
17,35:3
18,1:1
18,2:2
18,3:8
18,4:6
18,6:6
18,7:16
18,8:8
18,10:3
18,11:3
18,12:1
18,13:14
18,14:6
18,15:11
18,17:14
18,19:8
18,20:4
18,21:1
18,22:11
18,24:3
18,25:1
18,26:14
18,27:5
18,28:1
18,29:7
18,30:16
18,32:14
18,33:5
18,34:7
18,35:11
18,44:5
19,1:9
19,2:6
19,4:2
19,5:8
19,6:2
19,7:8
19,8:16
19,9:8
19,10:11
19,11:5
19,12:9
19,13:6
19,14:2
19,15:3
19,17:6
19,20:4
19,21:9
19,22:3
19,23:4
19,24:5
19,25:9
19,26:6
19,27:13
19,28:9
19,29:15
19,30:8
19,32:6
19,33:13
19,34:15
19,35:3
19,44:13
20,2:2
20,3:4
20,4:2
20,5:4
20,6:2
20,7:12
20,8:12
20,10:7
20,16:12
20,18:4
20,19:4
20,21:5
20,22:7
20,24:1
20,25:5
20,27:9
20,28:5
20,30:12
20,32:10
20,33:9
20,34:11
20,35:7
21,2:3
21,4:7
21,5:1
21,6:7
21,7:17
21,8:7
21,10:2
21,16:7
21,18:1
21,19:9
21,22:12
21,23:5
21,24:4
21,26:15
21,27:4
21,30:17
21,32:15
21,33:4
21,34:6
21,35:12
21,44:4
22,1:12
22,2:9
22,4:5
22,5:11
22,6:5
22,7:5
22,8:19
22,9:11
22,10:14
22,11:8
22,12:12
22,13:3
22,14:5
22,16:19
22,17:3
22,18:11
22,19:3
22,20:7
22,21:12
22,23:7
22,24:8
22,25:12
22,26:3
22,27:16
22,28:12
22,29:18
22,31:6
22,32:3
22,33:16
22,44:16
23,1:5
23,2:2
23,3:4
23,4:2
23,5:4
23,7:12
23,8:12
23,9:4
23,10:7
23,11:1
23,12:5
23,13:10
23,14:2
23,15:7
23,17:10
23,21:5
23,22:7
23,24:1
23,25:5
23,26:10
23,27:9
23,28:5
23,29:11
23,30:12
23,31:1
23,32:10
23,33:9
23,34:11
23,35:7
23,44:9
24,1:4
24,2:1
24,3:5
24,4:3
24,5:3
24,7:13
24,8:11
24,9:3
24,10:6
24,12:4
24,13:11
24,14:3
24,15:8
24,16:11
24,17:11
24,18:3
24,19:5
24,20:1
24,21:4
24,22:8
24,23:1
24,25:4
24,26:11
24,27:8
24,28:4
24,29:10
24,30:13
24,31:2
24,32:11
24,33:8
24,34:10
24,35:8
24,44:8
25,3:9
25,4:7
25,5:1
25,6:7
25,7:17
25,8:7
25,10:2
25,16:7
25,18:1
25,19:9
25,22:12
25,23:5
25,24:4
25,26:15
25,27:4
25,29:6
25,30:17
25,31:6
25,32:15
25,33:4
25,34:6
25,35:12
25,36:1
25,37:4
25,38:6
25,39:4
25,40:4
25,41:4
25,42:12
25,43:12
25,44:4
25,45:3
25,46:8
25,47:8
25,48:8
25,49:6
25,50:13
25,51:13
26,2:12
26,4:8
26,5:14
26,6:8
26,7:2
26,8:22
26,10:17
26,16:22
26,18:14
26,19:6
26,22:3
26,23:10
26,24:11
26,25:15
26,27:19
26,28:15
26,29:21
26,30:2
26,33:19
26,34:21
26,35:3
26,44:19
27,1:4
27,2:7
27,4:11
27,5:5
27,6:11
27,7:21
27,8:3
27,9:5
27,10:2
27,11:8
27,12:4
27,13:19
27,14:11
27,15:16
27,16:3
27,17:19
27,18:5
27,19:13
27,20:9
27,21:4
27,23:9
27,24:8
27,25:4
27,26:19
27,28:4
27,29:2
27,30:21
27,31:10
27,32:19
27,35:16
28,2:3
28,3:9
28,4:7
28,5:1
28,6:7
28,7:17
28,8:7
28,9:1
28,10:2
28,11:4
28,13:15
28,14:7
28,15:12
28,16:7
28,17:15
28,18:1
28,19:9
28,20:5
28,22:12
28,23:5
28,24:4
28,26:15
28,27:4
28,29:6
28,30:17
28,31:6
28,32:15
28,33:4
28,34:6
28,36:1
28,37:4
28,38:6
28,39:4
28,40:4
28,41:4
28,42:12
28,44:4
29,2:9
29,4:13
29,5:7
29,6:13
29,7:23
29,8:1
29,10:4
29,16:1
29,18:7
29,19:15
29,22:18
29,23:11
29,24:10
29,25:6
29,27:2
29,28:6
29,30:23
29,31:12
29,32:21
29,33:2
29,35:18
29,44:2
30,1:17
30,2:14
30,4:10
30,5:16
30,6:10
30,8:24
30,9:16
30,10:19
30,11:13
30,12:17
30,13:2
30,14:10
30,15:5
30,16:24
30,17:2
30,18:16
30,19:8
30,20:12
30,21:17
30,23:12
30,24:13
30,25:17
30,26:2
30,28:17
30,29:23
30,31:11
30,32:2
30,33:21
30,34:23
30,35:5
30,44:21
31,2:3
31,4:1
31,5:5
31,7:11
31,8:13
31,10:8
31,22:6
31,25:6
31,27:10
31,28:6
31,30:11
31,32:9
31,33:10
31,34:12
31,35:6
31,36:5
31,44:10
32,1:15
32,2:12
32,3:6
32,4:8
32,5:14
32,6:8
32,7:2
32,8:22
32,9:14
32,10:17
32,11:11
32,12:15
32,14:8
32,15:3
32,16:22
32,18:14
32,19:6
32,20:10
32,21:15
32,22:3
32,23:10
32,24:11
32,25:15
32,27:19
32,29:21
32,30:2
32,31:9
32,33:19
32,34:21
32,35:3
32,36:14
32,37:19
32,38:9
32,39:19
32,40:19
32,41:19
32,42:3
32,43:3
32,44:19
32,45:18
33,1:4
33,2:7
33,3:13
33,4:11
33,5:5
33,6:11
33,7:21
33,8:3
33,9:5
33,10:2
33,11:8
33,12:4
33,13:19
33,14:11
33,15:16
33,16:3
33,17:19
33,18:5
33,19:13
33,20:9
33,21:4
33,22:16
33,23:9
33,24:8
33,25:4
33,26:19
33,29:2
33,30:21
33,31:10
33,32:19
33,34:2
33,35:16
33,36:5
33,38:10
33,42:16
34,1:6
34,2:9
34,4:13
34,5:7
34,6:13
34,7:23
34,8:1
34,9:7
34,10:4
34,11:10
34,12:6
34,13:21
34,14:13
34,15:18
34,16:1
34,17:21
34,18:7
34,19:15
34,20:11
34,21:6
34,23:11
34,24:10
34,25:6
34,26:21
34,28:6
34,31:12
34,32:21
34,33:2
34,35:18
34,36:7
34,44:2
35,1:12
35,2:9
35,3:3
35,4:5
35,5:11
35,6:5
35,7:5
35,8:19
35,9:11
35,10:14
35,11:8
35,12:12
35,13:3
35,14:5
35,16:19
35,17:3
35,18:11
35,19:3
35,20:7
35,21:12
35,23:7
35,24:8
35,25:12
35,26:3
35,27:16
35,29:18
35,30:5
35,31:6
35,32:3
35,34:18
35,36:11
35,37:16
35,38:6
35,39:16
35,40:16
35,41:16
35,44:16
36,2:2
36,4:6
36,7:16
36,8:8
36,10:3
36,25:1
36,28:1
36,32:14
36,33:5
36,35:11
36,37:5
36,38:5
36,44:5
37,2:7
37,4:11
37,7:21
37,8:3
37,10:2
37,25:4
37,28:4
37,32:19
37,35:16
37,38:10
38,4:1
38,7:11
38,8:13
38,10:8
38,28:6
38,32:9
38,33:10
38,35:6
38,37:10
38,39:10
38,40:10
38,41:10
38,42:6
38,43:6
38,44:10
38,45:9
38,46:2
38,47:2
38,48:2
38,50:7
38,51:7
38,52:7
39,2:7
39,4:11
39,7:21
39,8:3
39,10:2
39,25:4
39,28:4
39,32:19
39,35:16
39,38:10
39,42:16
39,43:16
40,2:7
40,4:11
40,7:21
40,8:3
40,10:2
40,25:4
40,28:4
40,32:19
40,35:16
40,38:10
40,42:16
40,43:16
41,2:7
41,4:11
41,7:21
41,8:3
41,10:2
41,25:4
41,28:4
41,32:19
41,35:16
41,38:10
41,42:16
42,2:9
42,4:5
42,7:5
42,8:19
42,10:14
42,25:12
42,28:12
42,32:3
42,33:16
42,38:6
42,39:16
42,40:16
42,44:16
43,2:9
43,4:5
43,8:19
43,10:14
43,25:12
43,32:3
43,38:6
43,44:16
43,45:15
44,2:7
44,4:11
44,5:5
44,6:11
44,7:21
44,10:2
44,16:3
44,18:5
44,19:13
44,22:16
44,23:9
44,24:8
44,25:4
44,26:19
44,28:4
44,29:2
44,30:21
44,31:10
44,32:19
44,34:2
44,35:16
44,36:5
44,38:10
44,42:16
44,43:16
44,45:1
45,2:6
45,4:10
45,10:1
45,25:3
45,38:9
45,46:11
45,48:11
45,49:9
46,2:5
46,4:1
46,10:10
46,25:8
46,38:2
46,49:2
46,50:5
47,2:5
47,4:1
47,10:10
47,25:8
47,38:2
47,49:2
47,50:5
47,51:5
48,2:5
48,4:1
48,10:10
48,25:8
48,38:2
48,49:2
48,50:5
48,51:5
48,52:5
48,53:10
48,54:7
48,55:8
48,56:7
49,2:3
49,4:1
49,10:8
49,25:6
49,46:2
49,47:2
49,48:2
49,50:7
49,51:7
49,52:7
49,53:12
49,54:5
49,55:10
49,56:5
49,57:10
49,58:10
50,2:10
50,4:6
50,10:15
50,25:13
50,38:7
50,47:5
50,48:5
50,49:7
50,53:5
50,54:12
50,55:3
50,56:12
50,57:3
50,58:3
51,2:10
51,4:6
51,10:15
51,25:13
51,38:7
51,48:5
51,49:7
52,4:6
52,10:15
52,48:5
52,49:7
52,53:5
53,4:11
53,10:20
53,48:10
53,49:12
53,50:5
53,54:17
54,4:6
54,10:3
54,48:7
54,49:5
54,50:12
54,55:15
55,4:9
55,10:18
55,49:10
55,50:3
55,56:15
56,4:6
56,10:3
56,48:7
56,49:5
56,50:12
56,55:15
56,57:15
57,4:9
57,10:18
57,49:10
57,50:3
58,4:9
58,10:18

<setup times backward>
1,2:3
1,3:9
1,4:7
1,5:1
1,6:7
1,7:17
1,18:1
1,19:9
1,22:12
1,23:5
1,24:4
1,30:17
1,32:15
1,35:12
2,3:6
2,4:4
2,6:4
2,7:14
2,11:1
2,13:12
2,14:4
2,15:9
2,17:12
2,19:6
2,20:2
2,22:9
2,23:2
2,24:1
2,26:12
2,30:14
2,31:3
2,32:12
2,35:9
2,42:9
2,43:9
2,46:5
2,47:5
2,48:5
2,49:3
2,50:10
2,51:10
3,7:8
3,13:6
3,15:3
3,17:6
3,32:6
3,35:3
4,3:2
4,7:10
4,13:8
4,15:5
4,17:8
4,19:2
4,22:5
4,26:8
4,30:10
4,32:8
4,35:5
4,42:5
4,43:5
4,46:1
4,47:1
4,48:1
4,50:6
4,51:6
4,52:6
4,53:11
4,55:9
4,57:9
4,58:9
5,2:2
5,3:8
5,4:6
5,6:6
5,7:16
5,11:3
5,13:14
5,14:6
5,15:11
5,17:14
5,19:8
5,20:4
5,22:11
5,23:4
5,24:3
5,26:14
5,30:16
5,31:5
5,32:14
5,35:11
6,3:2
6,7:10
6,13:8
6,15:5
6,17:8
6,19:2
6,22:5
6,26:8
6,30:10
6,32:8
6,35:5
8,1:7
8,2:10
8,3:16
8,4:14
8,5:8
8,6:14
8,7:24
8,9:8
8,10:5
8,11:11
8,12:7
8,13:22
8,14:14
8,15:19
8,17:22
8,18:8
8,19:16
8,20:12
8,21:7
8,22:19
8,23:12
8,24:11
8,25:7
8,26:22
8,27:3
8,28:7
8,29:1
8,30:24
8,31:13
8,32:22
8,33:3
8,34:1
8,35:19
8,36:8
8,37:3
8,38:13
8,39:3
8,40:3
8,41:3
8,42:19
8,43:19
9,2:2
9,3:8
9,4:6
9,6:6
9,7:16
9,19:8
9,22:11
9,23:4
9,24:3
9,30:16
9,32:14
9,35:11
10,1:2
10,2:5
10,3:11
10,4:9
10,5:3
10,6:9
10,7:19
10,9:3
10,11:6
10,12:2
10,13:17
10,14:9
10,15:14
10,17:17
10,18:3
10,19:11
10,20:7
10,21:2
10,22:14
10,23:7
10,24:6
10,25:2
10,26:17
10,28:2
10,30:19
10,31:8
10,32:17
10,35:14
10,36:3
10,38:8
10,42:14
10,43:14
10,46:10
10,47:10
10,48:10
10,49:8
10,50:15
10,51:15
10,52:15
10,53:20
10,54:3
10,55:18
10,56:3
10,57:18
10,58:18
11,3:5
11,4:3
11,6:3
11,7:13
11,19:5
11,22:8
11,23:1
11,30:13
11,32:11
11,35:8
12,2:3
12,3:9
12,4:7
12,5:1
12,6:7
12,7:17
12,9:1
12,11:4
12,13:15
12,14:7
12,15:12
12,18:1
12,19:9
12,22:12
12,23:5
12,24:4
12,30:17
12,32:15
12,35:12
13,7:2
13,30:2
14,3:2
14,7:10
14,13:8
14,15:5
14,19:2
14,22:5
14,30:10
14,32:8
14,35:5
15,7:5
15,13:3
15,30:5
15,32:3
16,1:7
16,2:10
16,3:16
16,4:14
16,5:8
16,6:14
16,7:24
16,9:8
16,10:5
16,11:11
16,12:7
16,13:22
16,14:14
16,15:19
16,17:22
16,20:12
16,21:7
16,22:19
16,24:11
16,25:7
16,26:22
16,27:3
16,28:7
16,29:1
16,30:24
16,32:22
16,33:3
16,34:1
16,35:19
16,44:3
17,7:2
17,30:2
18,2:2
18,3:8
18,4:6
18,6:6
18,7:16
18,11:3
18,13:14
18,14:6
18,15:11
18,17:14
18,20:4
18,22:11
18,24:3
18,26:14
18,30:16
18,32:14
18,35:11
19,7:8
19,13:6
19,15:3
19,17:6
19,22:3
19,26:6
19,30:8
19,32:6
19,35:3
20,3:4
20,4:2
20,6:2
20,7:12
20,13:10
20,14:2
20,15:7
20,17:10
20,19:4
20,22:7
20,30:12
20,32:10
20,35:7
21,2:3
21,3:9
21,4:7
21,5:1
21,6:7
21,7:17
21,9:1
21,11:4
21,13:15
21,14:7
21,15:12
21,17:15
21,18:1
21,19:9
21,20:5
21,22:12
21,23:5
21,24:4
21,30:17
21,32:15
21,35:12
22,7:5
22,13:3
22,17:3
22,26:3
22,32:3
23,3:4
23,4:2
23,6:2
23,7:12
23,13:10
23,14:2
23,15:7
23,17:10
23,19:4
23,22:7
23,26:10
23,30:12
23,32:10
23,35:7
24,3:5
24,4:3
24,6:3
24,7:13
24,13:11
24,14:3
24,15:8
24,17:11
24,19:5
24,20:1
24,22:8
24,23:1
24,26:11
24,30:13
24,32:11
24,35:8
25,2:3
25,3:9
25,4:7
25,5:1
25,6:7
25,7:17
25,9:1
25,11:4
25,13:15
25,14:7
25,15:12
25,17:15
25,18:1
25,19:9
25,20:5
25,22:12
25,23:5
25,24:4
25,26:15
25,30:17
25,31:6
25,32:15
25,35:12
25,36:1
25,42:12
25,43:12
25,46:8
25,47:8
25,48:8
25,49:6
25,50:13
25,51:13
26,7:2
26,30:2
27,1:4
27,2:7
27,3:13
27,4:11
27,5:5
27,6:11
27,7:21
27,9:5
27,10:2
27,11:8
27,12:4
27,13:19
27,14:11
27,15:16
27,17:19
27,18:5
27,19:13
27,20:9
27,21:4
27,22:16
27,23:9
27,24:8
27,25:4
27,26:19
27,28:4
27,31:10
27,32:19
27,35:16
28,2:3
28,3:9
28,4:7
28,5:1
28,6:7
28,7:17
28,9:1
28,11:4
28,13:15
28,14:7
28,15:12
28,17:15
28,18:1
28,19:9
28,20:5
28,22:12
28,23:5
28,24:4
28,26:15
28,30:17
28,31:6
28,36:1
28,38:6
28,42:12
29,1:6
29,2:9
29,3:15
29,4:13
29,5:7
29,6:13
29,7:23
29,9:7
29,10:4
29,11:10
29,12:6
29,13:21
29,14:13
29,15:18
29,17:21
29,18:7
29,19:15
29,20:11
29,21:6
29,22:18
29,23:11
29,24:10
29,25:6
29,26:21
29,27:2
29,28:6
29,30:23
29,32:21
29,33:2
29,35:18
29,44:2
31,3:3
31,4:1
31,6:1
31,7:11
31,13:9
31,14:1
31,15:6
31,17:9
31,19:3
31,22:6
31,26:9
31,30:11
31,32:9
31,35:6
32,7:2
32,30:2
33,1:4
33,2:7
33,3:13
33,4:11
33,5:5
33,6:11
33,7:21
33,9:5
33,10:2
33,11:8
33,12:4
33,13:19
33,14:11
33,15:16
33,17:19
33,18:5
33,19:13
33,20:9
33,21:4
33,22:16
33,23:9
33,24:8
33,25:4
33,26:19
33,28:4
33,30:21
33,31:10
33,32:19
33,36:5
33,38:10
33,42:16
34,1:6
34,2:9
34,3:15
34,4:13
34,5:7
34,6:13
34,7:23
34,9:7
34,10:4
34,11:10
34,12:6
34,13:21
34,14:13
34,15:18
34,17:21
34,18:7
34,19:15
34,20:11
34,21:6
34,22:18
34,23:11
34,24:10
34,25:6
34,26:21
34,27:2
34,28:6
34,30:23
34,31:12
34,32:21
34,33:2
34,35:18
34,44:2
35,7:5
35,13:3
35,17:3
35,26:3
35,30:5
35,32:3
36,2:2
36,3:8
36,4:6
36,6:6
36,7:16
36,11:3
36,13:14
36,14:6
36,15:11
36,17:14
36,19:8
36,20:4
36,22:11
36,23:4
36,24:3
36,26:14
36,30:16
36,31:5
36,32:14
36,35:11
37,1:4
37,2:7
37,3:13
37,4:11
37,5:5
37,6:11
37,7:21
37,9:5
37,10:2
37,11:8
37,12:4
37,13:19
37,14:11
37,15:16
37,17:19
37,18:5
37,19:13
37,20:9
37,21:4
37,22:16
37,23:9
37,24:8
37,25:4
37,26:19
37,28:4
37,30:21
37,31:10
37,32:19
37,35:16
37,36:5
37,38:10
38,3:3
38,4:1
38,6:1
38,7:11
38,13:9
38,14:1
38,15:6
38,17:9
38,19:3
38,22:6
38,26:9
38,30:11
38,32:9
38,35:6
38,42:6
38,43:6
38,46:2
38,47:2
38,48:2
38,50:7
38,51:7
39,1:4
39,2:7
39,3:13
39,4:11
39,5:5
39,6:11
39,7:21
39,9:5
39,10:2
39,11:8
39,12:4
39,13:19
39,14:11
39,15:16
39,17:19
39,18:5
39,19:13
39,20:9
39,21:4
39,22:16
39,23:9
39,24:8
39,25:4
39,26:19
39,28:4
39,30:21
39,31:10
39,32:19
39,35:16
39,36:5
39,38:10
39,42:16
40,1:4
40,2:7
40,3:13
40,4:11
40,5:5
40,6:11
40,7:21
40,9:5
40,10:2
40,11:8
40,12:4
40,13:19
40,14:11
40,15:16
40,17:19
40,18:5
40,19:13
40,20:9
40,21:4
40,22:16
40,23:9
40,24:8
40,25:4
40,26:19
40,28:4
40,30:21
40,31:10
40,32:19
40,35:16
40,36:5
40,38:10
40,42:16
41,1:4
41,2:7
41,3:13
41,4:11
41,5:5
41,6:11
41,7:21
41,9:5
41,10:2
41,11:8
41,12:4
41,13:19
41,14:11
41,15:16
41,17:19
41,18:5
41,19:13
41,20:9
41,21:4
41,22:16
41,23:9
41,24:8
41,25:4
41,26:19
41,28:4
41,30:21
41,31:10
41,32:19
41,35:16
41,36:5
41,38:10
42,7:5
42,13:3
42,17:3
42,26:3
42,30:5
42,32:3
43,7:5
43,13:3
43,17:3
43,26:3
43,30:5
43,32:3
44,1:4
44,2:7
44,3:13
44,4:11
44,5:5
44,6:11
44,7:21
44,9:5
44,10:2
44,11:8
44,12:4
44,13:19
44,14:11
44,15:16
44,17:19
44,18:5
44,19:13
44,20:9
44,21:4
44,22:16
44,23:9
44,24:8
44,25:4
44,26:19
44,28:4
44,30:21
44,31:10
44,32:19
44,35:16
44,36:5
44,38:10
44,42:16
44,43:16
45,1:3
45,2:6
45,3:12
45,4:10
45,5:4
45,6:10
45,7:20
45,9:4
45,10:1
45,11:7
45,12:3
45,13:18
45,14:10
45,15:15
45,17:18
45,18:4
45,19:12
45,20:8
45,21:3
45,22:15
45,23:8
45,24:7
45,25:3
45,26:18
45,28:3
45,30:20
45,31:9
45,32:18
45,35:15
45,36:4
45,38:9
45,42:15
45,43:15
46,3:1
46,7:9
46,13:7
46,15:4
46,17:7
46,19:1
46,22:4
46,26:7
46,30:9
46,32:7
46,35:4
46,42:4
46,43:4
47,3:1
47,7:9
47,13:7
47,15:4
47,17:7
47,19:1
47,22:4
47,26:7
47,30:9
47,32:7
47,35:4
47,42:4
47,43:4
47,50:5
48,3:1
48,7:9
48,13:7
48,15:4
48,17:7
48,19:1
48,22:4
48,26:7
48,30:9
48,32:7
48,35:4
48,42:4
48,43:4
48,50:5
48,51:5
48,52:5
48,53:10
49,3:3
49,4:1
49,6:1
49,7:11
49,13:9
49,14:1
49,15:6
49,17:9
49,19:3
49,22:6
49,26:9
49,30:11
49,32:9
49,35:6
49,42:6
49,43:6
49,46:2
49,47:2
49,48:2
49,50:7
49,51:7
49,52:7
49,53:12
49,55:10
49,57:10
50,7:4
50,13:2
50,17:2
50,26:2
50,30:4
50,32:2
50,53:5
50,55:3
50,57:3
51,7:4
51,13:2
51,17:2
51,26:2
51,30:4
51,32:2
52,7:4
52,13:2
52,17:2
52,26:2
52,30:4
52,32:2
54,2:2
54,3:8
54,4:6
54,6:6
54,7:16
54,11:3
54,13:14
54,14:6
54,15:11
54,17:14
54,19:8
54,20:4
54,22:11
54,23:4
54,24:3
54,26:14
54,30:16
54,31:5
54,32:14
54,35:11
54,38:5
54,42:11
54,43:11
54,46:7
54,47:7
54,48:7
54,49:5
54,50:12
54,51:12
54,52:12
54,53:17
55,7:1
55,30:1
55,53:2
56,2:2
56,3:8
56,4:6
56,6:6
56,7:16
56,11:3
56,13:14
56,14:6
56,15:11
56,17:14
56,19:8
56,20:4
56,22:11
56,23:4
56,24:3
56,26:14
56,30:16
56,31:5
56,32:14
56,35:11
56,38:5
56,42:11
56,43:11
56,46:7
56,47:7
56,48:7
56,49:5
56,50:12
56,51:12
56,52:12
56,53:17
56,55:15
57,7:1
57,30:1
57,53:2
58,7:1
58,30:1
58,53:2

<end>

<optimal SALBP-1 value>
29


<rand seed>
467321153

<Lower Bounds>
Lm1=28
Lms1=28
Lm2=26
Lm3=24
Lm4=28
Best=28

<Optimal Stations (Iterations: 10)>
39
